
nNurses = 162;
hours = 61;
demand = [13 5 20 27 0 14 27 11 39 22 30 7 33 14 5 18 7 18 36 15 8 29 14 23 32 10 9 4 26 2 37 2 34 31 30 39 15 28 23 0 22 27 12 11 3 1 6 2 1 12 20 28 5 37 34 18 4 22 0 5 24];
minHours = 16;
maxHours = 23;
maxConsec = 14;
maxPresence = 43;